p tdp 111 110
104 24
3 85
7 67
68 15
57 106
77 87
108 58
28 16
38 60
75 4
66 8
45 95
43 81
61 56
78 68
61 28
70 98
23 35
65 19
17 102
73 18
33 29
17 59
2 93
80 84
106 44
9 88
12 20
41 89
72 42
99 5
23 76
72 7
22 69
4 40
32 38
21 27
108 25
61 65
10 111
84 18
11 70
14 33
110 34
83 20
63 22
48 38
32 30
110 12
15 6
102 53
6 23
38 85
10 107
100 109
58 16
77 99
95 49
11 46
13 9
103 64
64 74
92 79
8 100
102 108
47 36
25 27
51 26
95 106
86 1
91 93
27 98
101 54
51 17
81 97
55 50
79 48
64 9
37 105
49 96
100 71
74 39
84 72
24 90
82 41
33 49
52 78
1 50
39 90
81 8
105 58
19 18
66 69
47 35
82 107
106 20
38 94
104 45
90 38
47 40
95 69
101 99
62 111
10 6
54 93
79 1
14 67
31 36
8 101
4 105
